32	4
14	18	13	15
0	0	0	0	0	1	2
1	14	0	0	13	1	3
8	14	0	6	0	1	4
10	0	7	0	13	1	5
10	14	0	13	0	2	6	31
7	8	18	0	0	1	7
5	14	0	13	0	1	8
7	0	11	13	0	2	9	30
8	0	0	11	7	1	10
4	0	3	5	0	2	11	29
1	0	0	13	15	2	12	28
4	0	0	13	15	1	13
1	0	0	10	13	1	14
7	0	12	0	10	1	15
4	0	0	5	5	1	16
1	0	18	13	0	2	17	27
5	0	18	0	11	1	18
6	7	0	0	4	1	19
5	14	0	10	0	1	20
8	7	0	0	8	1	21
4	0	12	0	15	2	22	26
7	0	8	0	15	1	23
9	7	0	13	0	1	24
1	14	0	0	10	1	25
10	8	18	0	0	1	32
5	14	11	0	0	1	32
5	9	18	0	0	1	32
1	0	13	4	0	1	32
2	0	18	4	0	1	32
9	6	0	0	15	1	32
5	8	18	0	0	1	32
0	0	0	0	0	0
